p edge 150 1118
e 1 8
e 1 20
e 1 32
e 1 39
e 1 43
e 1 67
e 1 76
e 1 84
e 1 86
e 1 93
e 1 95
e 1 100
e 1 109
e 1 110
e 1 121
e 1 135
e 1 136
e 2 46
e 2 81
e 2 96
e 2 112
e 2 126
e 2 136
e 2 147
e 2 150
e 3 6
e 3 7
e 3 33
e 3 45
e 3 47
e 3 52
e 3 57
e 3 73
e 3 92
e 3 100
e 3 122
e 3 138
e 3 140
e 4 16
e 4 34
e 4 36
e 4 42
e 4 44
e 4 48
e 4 61
e 4 70
e 4 77
e 4 82
e 4 88
e 4 94
e 4 121
e 4 125
e 4 145
e 4 146
e 5 27
e 5 39
e 5 75
e 5 81
e 5 84
e 5 114
e 5 116
e 5 126
e 5 130
e 5 132
e 5 133
e 5 134
e 5 142
e 6 7
e 6 15
e 6 21
e 6 35
e 6 38
e 6 39
e 6 41
e 6 51
e 6 59
e 6 64
e 6 65
e 6 94
e 6 101
e 6 108
e 6 113
e 6 130
e 6 135
e 6 137
e 6 139
e 6 142
e 7 8
e 7 15
e 7 17
e 7 25
e 7 28
e 7 46
e 7 69
e 7 100
e 7 103
e 7 108
e 7 110
e 7 118
e 7 120
e 7 147
e 8 19
e 8 38
e 8 57
e 8 66
e 8 81
e 8 90
e 8 109
e 8 117
e 8 118
e 8 127
e 9 46
e 9 58
e 9 65
e 9 69
e 9 71
e 9 79
e 9 90
e 9 100
e 9 101
e 9 105
e 9 106
e 9 116
e 9 131
e 9 132
e 9 133
e 10 21
e 10 39
e 10 40
e 10 71
e 10 76
e 10 81
e 10 83
e 10 99
e 10 128
e 10 133
e 10 143
e 11 12
e 11 19
e 11 24
e 11 32
e 11 36
e 11 40
e 11 42
e 11 44
e 11 46
e 11 50
e 11 64
e 11 74
e 11 80
e 11 101
e 11 114
e 11 115
e 11 126
e 11 133
e 11 135
e 12 20
e 12 23
e 12 32
e 12 56
e 12 61
e 12 70
e 12 77
e 12 80
e 12 88
e 12 96
e 12 100
e 12 131
e 12 139
e 13 17
e 13 18
e 13 25
e 13 35
e 13 38
e 13 54
e 13 67
e 13 71
e 13 81
e 13 84
e 13 87
e 13 89
e 13 110
e 13 113
e 13 114
e 13 132
e 13 142
e 13 143
e 13 148
e 14 20
e 14 22
e 14 23
e 14 25
e 14 31
e 14 57
e 14 62
e 14 67
e 14 68
e 14 90
e 14 104
e 14 107
e 14 114
e 14 119
e 14 121
e 14 126
e 14 150
e 15 42
e 15 45
e 15 69
e 15 93
e 15 104
e 15 111
e 15 138
e 16 17
e 16 21
e 16 24
e 16 29
e 16 40
e 16 43
e 16 87
e 16 100
e 16 108
e 16 111
e 16 112
e 16 116
e 16 117
e 16 131
e 17 36
e 17 37
e 17 52
e 17 72
e 17 79
e 17 92
e 17 94
e 17 98
e 17 101
e 17 118
e 17 122
e 17 126
e 17 137
e 17 145
e 18 20
e 18 24
e 18 44
e 18 51
e 18 55
e 18 85
e 18 104
e 18 108
e 18 111
e 18 115
e 18 121
e 18 123
e 18 125
e 18 134
e 18 142
e 18 144
e 19 23
e 19 61
e 19 68
e 19 84
e 19 94
e 19 97
e 19 100
e 19 105
e 19 110
e 19 134
e 19 147
e 20 33
e 20 35
e 20 47
e 20 52
e 20 56
e 20 63
e 20 68
e 20 81
e 20 85
e 20 86
e 20 96
e 20 113
e 20 130
e 20 134
e 21 26
e 21 27
e 21 47
e 21 50
e 21 58
e 21 66
e 21 81
e 21 92
e 21 96
e 21 121
e 21 140
e 21 146
e 21 147
e 22 25
e 22 26
e 22 37
e 22 48
e 22 58
e 22 61
e 22 83
e 22 84
e 22 93
e 22 98
e 22 101
e 22 114
e 22 116
e 22 118
e 22 137
e 23 28
e 23 29
e 23 39
e 23 48
e 23 67
e 23 69
e 23 87
e 23 115
e 23 120
e 23 134
e 23 135
e 23 141
e 23 144
e 23 149
e 24 28
e 24 32
e 24 49
e 24 59
e 24 69
e 24 79
e 24 84
e 24 86
e 24 100
e 24 115
e 24 136
e 25 36
e 25 38
e 25 41
e 25 44
e 25 53
e 25 63
e 25 73
e 25 78
e 25 89
e 25 106
e 25 126
e 25 138
e 25 146
e 25 147
e 25 150
e 26 39
e 26 47
e 26 56
e 26 65
e 26 70
e 26 87
e 26 108
e 26 110
e 26 134
e 26 138
e 27 39
e 27 65
e 27 67
e 27 72
e 27 95
e 27 108
e 27 110
e 27 115
e 27 117
e 27 137
e 27 139
e 27 144
e 28 29
e 28 34
e 28 41
e 28 47
e 28 48
e 28 57
e 28 84
e 28 105
e 28 107
e 28 119
e 28 126
e 28 129
e 28 149
e 29 35
e 29 36
e 29 42
e 29 43
e 29 47
e 29 64
e 29 70
e 29 83
e 29 86
e 29 98
e 29 104
e 29 115
e 29 117
e 29 125
e 29 127
e 29 140
e 29 149
e 30 33
e 30 38
e 30 61
e 30 63
e 30 66
e 30 67
e 30 107
e 30 110
e 30 112
e 30 115
e 30 119
e 30 122
e 30 124
e 30 133
e 31 42
e 31 76
e 31 78
e 31 88
e 31 89
e 31 98
e 31 101
e 31 116
e 31 140
e 31 145
e 32 44
e 32 49
e 32 70
e 32 72
e 32 83
e 32 94
e 32 111
e 32 123
e 33 36
e 33 50
e 33 79
e 33 99
e 33 119
e 33 124
e 33 128
e 33 144
e 34 41
e 34 42
e 34 44
e 34 60
e 34 61
e 34 69
e 34 77
e 34 82
e 34 93
e 34 95
e 34 96
e 34 117
e 34 140
e 34 142
e 34 150
e 35 38
e 35 42
e 35 54
e 35 69
e 35 80
e 35 94
e 35 104
e 35 108
e 35 115
e 35 119
e 35 123
e 35 125
e 35 130
e 35 136
e 35 140
e 35 146
e 36 44
e 36 82
e 36 83
e 36 128
e 36 136
e 36 144
e 36 149
e 37 39
e 37 50
e 37 93
e 37 100
e 37 105
e 37 107
e 37 111
e 37 114
e 37 138
e 37 148
e 38 54
e 38 55
e 38 58
e 38 59
e 38 78
e 38 79
e 38 101
e 38 102
e 38 106
e 38 115
e 38 123
e 38 139
e 38 141
e 38 144
e 39 65
e 39 79
e 39 82
e 39 101
e 39 107
e 39 109
e 39 120
e 39 124
e 39 125
e 39 130
e 39 136
e 39 139
e 40 52
e 40 58
e 40 68
e 40 85
e 40 133
e 40 134
e 40 143
e 41 49
e 41 51
e 41 53
e 41 59
e 41 67
e 41 107
e 41 109
e 41 118
e 41 136
e 41 147
e 41 149
e 42 46
e 42 52
e 42 70
e 42 99
e 42 140
e 43 54
e 43 77
e 43 90
e 43 115
e 43 124
e 43 129
e 43 135
e 44 56
e 44 58
e 44 61
e 44 72
e 44 75
e 44 81
e 44 83
e 44 84
e 44 106
e 44 118
e 44 131
e 44 138
e 44 141
e 44 143
e 45 49
e 45 57
e 45 78
e 45 92
e 45 116
e 45 121
e 45 135
e 45 141
e 46 47
e 46 50
e 46 83
e 46 89
e 46 90
e 46 96
e 46 98
e 46 113
e 46 117
e 46 136
e 46 138
e 46 143
e 46 147
e 46 149
e 47 76
e 47 81
e 47 92
e 47 122
e 47 144
e 47 147
e 47 149
e 48 50
e 48 55
e 48 60
e 48 66
e 48 69
e 48 96
e 48 122
e 48 140
e 48 142
e 48 145
e 49 65
e 49 91
e 49 94
e 49 95
e 49 101
e 49 109
e 49 120
e 49 123
e 49 130
e 49 149
e 50 53
e 50 63
e 50 66
e 50 77
e 50 82
e 50 91
e 50 100
e 50 121
e 50 140
e 50 142
e 50 149
e 51 55
e 51 73
e 51 76
e 51 88
e 51 99
e 51 102
e 51 105
e 51 109
e 51 115
e 51 133
e 51 136
e 52 54
e 52 58
e 52 69
e 52 81
e 52 91
e 52 106
e 52 115
e 52 116
e 52 129
e 52 131
e 52 140
e 52 147
e 53 63
e 53 64
e 53 67
e 53 90
e 53 93
e 54 55
e 54 72
e 54 78
e 54 85
e 54 93
e 54 112
e 54 147
e 55 63
e 55 73
e 55 81
e 55 122
e 55 129
e 55 138
e 55 143
e 55 149
e 56 65
e 56 71
e 56 77
e 56 94
e 56 102
e 56 109
e 56 128
e 56 136
e 56 148
e 57 64
e 57 73
e 57 82
e 57 87
e 57 99
e 57 114
e 57 130
e 57 133
e 57 142
e 58 64
e 58 80
e 58 92
e 58 96
e 58 98
e 58 104
e 58 113
e 58 127
e 58 130
e 58 132
e 58 138
e 59 60
e 59 63
e 59 70
e 59 74
e 59 94
e 59 101
e 59 121
e 59 126
e 59 139
e 59 143
e 60 67
e 60 69
e 60 74
e 60 75
e 60 92
e 60 96
e 60 97
e 60 129
e 60 131
e 61 67
e 61 72
e 61 82
e 61 87
e 61 94
e 61 107
e 61 127
e 61 145
e 61 147
e 61 150
e 62 67
e 62 68
e 62 91
e 62 92
e 62 120
e 62 121
e 62 136
e 62 145
e 63 69
e 63 75
e 63 88
e 63 97
e 63 123
e 63 142
e 63 148
e 63 150
e 64 71
e 64 111
e 64 125
e 64 133
e 64 134
e 64 141
e 65 69
e 65 72
e 65 73
e 65 78
e 65 103
e 65 106
e 65 110
e 65 122
e 65 127
e 65 129
e 65 139
e 66 92
e 66 112
e 66 115
e 66 118
e 66 126
e 66 127
e 66 130
e 66 133
e 67 68
e 67 72
e 67 73
e 67 74
e 67 88
e 67 93
e 67 96
e 67 101
e 67 109
e 67 130
e 68 69
e 68 76
e 68 77
e 68 104
e 68 118
e 68 121
e 68 126
e 68 130
e 68 148
e 69 71
e 69 78
e 69 79
e 69 80
e 69 92
e 69 96
e 69 109
e 69 120
e 69 138
e 69 143
e 69 145
e 69 146
e 69 147
e 70 73
e 70 90
e 70 109
e 70 110
e 70 122
e 70 126
e 70 143
e 70 144
e 71 82
e 71 114
e 71 116
e 71 126
e 71 132
e 71 137
e 71 144
e 71 146
e 72 91
e 72 94
e 72 97
e 72 122
e 72 131
e 72 133
e 72 134
e 73 75
e 73 80
e 73 94
e 73 107
e 73 147
e 74 95
e 74 102
e 74 110
e 74 118
e 74 125
e 74 140
e 74 142
e 74 144
e 75 77
e 75 85
e 75 93
e 75 130
e 75 139
e 76 81
e 76 106
e 76 118
e 76 128
e 76 130
e 76 131
e 76 135
e 76 138
e 77 92
e 77 99
e 77 104
e 77 114
e 77 133
e 77 149
e 78 84
e 78 102
e 78 114
e 78 119
e 78 129
e 78 142
e 78 145
e 78 148
e 78 150
e 79 105
e 79 148
e 79 149
e 80 85
e 80 87
e 80 97
e 80 105
e 80 107
e 80 120
e 80 140
e 80 142
e 80 146
e 80 150
e 81 91
e 81 97
e 81 113
e 81 125
e 81 136
e 81 150
e 82 101
e 82 118
e 82 129
e 82 144
e 83 84
e 83 92
e 83 99
e 83 104
e 83 109
e 83 118
e 83 122
e 83 125
e 83 127
e 83 140
e 83 145
e 84 116
e 84 117
e 84 124
e 84 131
e 84 132
e 85 89
e 85 98
e 85 114
e 85 115
e 85 143
e 86 96
e 86 99
e 86 100
e 86 105
e 86 109
e 86 112
e 86 113
e 86 114
e 86 117
e 86 145
e 86 148
e 87 90
e 87 92
e 87 95
e 87 118
e 87 125
e 87 131
e 88 93
e 88 96
e 88 106
e 88 116
e 88 126
e 88 133
e 88 150
e 89 104
e 89 109
e 89 148
e 90 92
e 90 95
e 90 101
e 90 111
e 90 119
e 90 124
e 90 133
e 90 141
e 91 95
e 91 96
e 91 103
e 91 105
e 91 108
e 91 109
e 91 148
e 92 98
e 92 113
e 92 120
e 92 128
e 92 132
e 92 139
e 93 96
e 93 99
e 93 127
e 93 139
e 93 147
e 93 148
e 94 105
e 94 136
e 94 141
e 95 99
e 95 110
e 95 113
e 95 121
e 95 123
e 95 130
e 95 138
e 95 144
e 95 145
e 96 113
e 96 124
e 96 131
e 97 110
e 97 111
e 97 113
e 97 115
e 97 129
e 97 138
e 98 99
e 98 102
e 98 103
e 98 105
e 98 106
e 98 120
e 98 126
e 98 128
e 98 133
e 98 138
e 98 144
e 99 101
e 99 103
e 99 107
e 99 109
e 99 110
e 99 119
e 99 125
e 99 127
e 99 131
e 99 142
e 100 108
e 100 113
e 100 128
e 100 135
e 100 137
e 101 113
e 101 133
e 101 135
e 101 145
e 102 106
e 102 125
e 102 149
e 103 106
e 103 134
e 103 142
e 103 143
e 103 148
e 104 106
e 104 112
e 104 144
e 105 108
e 105 117
e 105 128
e 105 132
e 106 120
e 106 122
e 106 123
e 106 128
e 106 141
e 106 144
e 106 146
e 106 150
e 107 109
e 107 134
e 108 110
e 108 111
e 108 141
e 109 125
e 109 133
e 110 114
e 110 118
e 110 120
e 110 127
e 110 141
e 110 144
e 111 129
e 111 131
e 111 132
e 111 134
e 111 141
e 111 148
e 112 118
e 112 122
e 112 124
e 112 130
e 112 135
e 113 120
e 113 125
e 113 129
e 113 130
e 114 127
e 114 136
e 115 123
e 115 138
e 115 142
e 115 149
e 116 120
e 116 124
e 116 142
e 116 143
e 117 124
e 117 126
e 117 147
e 118 122
e 118 136
e 118 139
e 119 141
e 120 125
e 121 129
e 121 130
e 121 135
e 121 150
e 122 123
e 122 135
e 122 143
e 123 133
e 123 141
e 123 146
e 123 147
e 124 137
e 124 148
e 125 135
e 125 137
e 125 150
e 127 142
e 127 143
e 127 144
e 127 149
e 127 150
e 128 138
e 129 133
e 129 134
e 129 147
e 130 136
e 130 138
e 130 150
e 131 134
e 131 144
e 131 148
e 132 133
e 134 141
e 134 147
e 134 150
e 135 147
e 136 143
e 141 146
e 141 150
e 142 146
e 142 149
e 144 147
e 145 150
